row=5;
column=5;
left=[9, 0, 10, 5, 8];
right=[5, 10, 9, 12, 0];
top=[0, 10, 0, 0, 5];
bottom=[8, 5, 11, 0, 0];
Board=[|0,0,0,0,0|1,4,0,3,0|0,0,0,0,0|0,2,0,0,0|0,0,2,0,0|]